c description: Random 4-CNF over 8 variables and 5 clauses
c generator: CNFgen (0.9.2)
c copyright: (C) 2012-2022 Massimo Lauria <massimo.lauria@uniroma1.it>
c url: https://massimolauria.net/cnfgen
c command line: cnfgen randkcnf 4 8 5
c
p cnf 8 5
4 5 6 -7 0
-2 3 4 8 0
-4 5 6 -7 0
5 6 7 -8 0
2 6 7 -8 0
